50
21501

40 602
582 898
45 228
393 753
427 752
842 502
388 900
595 873
485 249
753 525
983 84
927 519
431 615
762 326
448 86
183 531
463 493
72 408
857 476
654 690
556 861
33 48
251 942
885 859
395 590
938 246
888 314
505 810
460 426
268 772
694 99
443 580
762 759
852 246
16 834
525 403
616 635
281 196
312 194
301 244
195 564
969 486
885 796
549 461
785 22
574 230
863 728
514 27
601 413
34 794
